
n_res = 6;
rcap = [60, 54, 878, 898, 882, 855];
rtype = [1, 1, 2, 2, 2, 2];
n_tasks = 50;
modes =  [{1, 2, 3, 4, 5, 6, 7, 8, 9}, {10, 11, 12, 13, 14, 15, 16, 17, 18}, {19, 20, 21, 22, 23, 24, 25, 26, 27}, {28, 29, 30, 31, 32, 33, 34, 35, 36}, {37, 38, 39, 40, 41, 42, 43, 44, 45}, {46, 47, 48, 49, 50, 51, 52, 53, 54}, {55, 56, 57, 58, 59, 60, 61, 62, 63}, {64, 65, 66, 67, 68, 69, 70, 71, 72}, {73, 74, 75, 76, 77, 78, 79, 80, 81}, {82, 83, 84, 85, 86, 87, 88, 89, 90}, {91, 92, 93, 94, 95, 96, 97, 98, 99}, {100, 101, 102, 103, 104, 105, 106, 107, 108}, {109, 110, 111, 112, 113, 114, 115, 116, 117}, {118, 119, 120, 121, 122, 123, 124, 125, 126}, {127, 128, 129, 130, 131, 132, 133, 134, 135}, {136, 137, 138, 139, 140, 141, 142, 143, 144}, {145, 146, 147, 148, 149, 150, 151, 152, 153}, {154, 155, 156, 157, 158, 159, 160, 161, 162}, {163, 164, 165, 166, 167, 168, 169, 170, 171}, {172, 173, 174, 175, 176, 177, 178, 179, 180}, {181, 182, 183, 184, 185, 186, 187, 188, 189}, {190, 191, 192, 193, 194, 195, 196, 197, 198}, {199, 200, 201, 202, 203, 204, 205, 206, 207}, {208, 209, 210, 211, 212, 213, 214, 215, 216}, {217, 218, 219, 220, 221, 222, 223, 224, 225}, {226, 227, 228, 229, 230, 231, 232, 233, 234}, {235, 236, 237, 238, 239, 240, 241, 242, 243}, {244, 245, 246, 247, 248, 249, 250, 251, 252}, {253, 254, 255, 256, 257, 258, 259, 260, 261}, {262, 263, 264, 265, 266, 267, 268, 269, 270}, {271, 272, 273, 274, 275, 276, 277, 278, 279}, {280, 281, 282, 283, 284, 285, 286, 287, 288}, {289, 290, 291, 292, 293, 294, 295, 296, 297}, {298, 299, 300, 301, 302, 303, 304, 305, 306}, {307, 308, 309, 310, 311, 312, 313, 314, 315}, {316, 317, 318, 319, 320, 321, 322, 323, 324}, {325, 326, 327, 328, 329, 330, 331, 332, 333}, {334, 335, 336, 337, 338, 339, 340, 341, 342}, {343, 344, 345, 346, 347, 348, 349, 350, 351}, {352, 353, 354, 355, 356, 357, 358, 359, 360}, {361, 362, 363, 364, 365, 366, 367, 368, 369}, {370, 371, 372, 373, 374, 375, 376, 377, 378}, {379, 380, 381, 382, 383, 384, 385, 386, 387}, {388, 389, 390, 391, 392, 393, 394, 395, 396}, {397, 398, 399, 400, 401, 402, 403, 404, 405}, {406, 407, 408, 409, 410, 411, 412, 413, 414}, {415, 416, 417, 418, 419, 420, 421, 422, 423}, {424, 425, 426, 427, 428, 429, 430, 431, 432}, {433, 434, 435, 436, 437, 438, 439, 440, 441}, {442, 443, 444, 445, 446, 447, 448, 449, 450}];
succ =  [{10, 7, 2}, {15, 5}, {17, 15, 13, 12, 11}, {15, 7}, {17, 13, 12, 11}, {13, 8}, {19, 17, 13, 11}, {26, 21, 17, 14, 12}, {27, 26, 19, 17, 16, 14}, {27, 26, 22, 19, 18, 16}, {26, 16, 14}, {22, 19, 18, 16}, {32, 29, 26, 25, 24, 23, 21}, {32, 31, 25, 22, 18}, {32, 31, 27, 25, 18}, {31, 25, 24, 23, 20}, {32, 31, 22, 20}, {24, 23, 20}, {32, 29, 23}, {34, 30, 29, 28}, {37, 33, 31, 27}, {23}, {39, 34, 30, 28}, {39, 34, 30, 28}, {34, 30, 28}, {39, 37, 36, 33}, {34, 30}, {37, 36, 33}, {44, 43, 41, 40, 39, 38}, {43, 40, 38, 35}, {40, 39, 38, 35}, {33}, {46, 44, 43, 41, 38}, {48, 43, 36}, {50, 49, 47, 46, 44, 41}, {40, 38}, {48, 47, 46, 43, 42}, {50, 49, 47, 42}, {49, 48, 46, 45}, {47, 46, 45}, {48, 42}, {45}, {45}, {45}, {}, {}, {}, {}, {}, {}];
n_opt = 450;
dur = [2, 3, 5, 6, 8, 14, 19, 20, 28, 1, 3, 5, 7, 8, 9, 10, 15, 24, 5, 6, 12, 13, 16, 19, 22, 23, 24, 5, 7, 11, 12, 14, 17, 18, 24, 30, 8, 18, 19, 20, 21, 22, 23, 24, 28, 3, 5, 6, 9, 11, 19, 23, 27, 29, 13, 14, 17, 18, 20, 21, 24, 25, 28, 1, 2, 3, 8, 20, 21, 25, 27, 30, 2, 3, 4, 5, 10, 13, 18, 24, 26, 4, 7, 11, 12, 13, 15, 18, 23, 27, 1, 2, 3, 14, 19, 20, 26, 27, 29, 7, 8, 10, 18, 23, 24, 25, 27, 29, 1, 6, 7, 11, 12, 17, 18, 25, 28, 3, 6, 7, 12, 13, 14, 15, 19, 28, 2, 3, 5, 6, 11, 22, 28, 29, 30, 13, 16, 19, 20, 22, 25, 26, 27, 29, 3, 6, 7, 8, 9, 14, 21, 27, 30, 4, 9, 14, 15, 16, 18, 22, 23, 26, 8, 14, 16, 17, 18, 25, 27, 28, 29, 4, 6, 7, 13, 19, 20, 24, 28, 29, 4, 5, 10, 18, 19, 21, 24, 27, 28, 1, 2, 13, 15, 16, 17, 18, 23, 29, 3, 4, 12, 15, 18, 21, 22, 23, 24, 4, 10, 12, 15, 16, 17, 21, 23, 30, 5, 16, 18, 20, 21, 22, 26, 27, 30, 2, 11, 14, 20, 25, 26, 27, 28, 29, 2, 3, 9, 10, 18, 23, 24, 25, 27, 3, 4, 8, 9, 15, 21, 22, 24, 25, 9, 13, 14, 15, 16, 17, 18, 20, 24, 1, 4, 11, 12, 14, 20, 22, 24, 29, 2, 6, 7, 10, 14, 16, 25, 27, 30, 4, 5, 6, 7, 13, 14, 19, 21, 30, 3, 5, 7, 12, 15, 21, 22, 28, 29, 1, 2, 3, 4, 7, 12, 13, 16, 29, 2, 3, 11, 14, 15, 16, 26, 27, 28, 2, 3, 10, 14, 16, 19, 20, 22, 27, 1, 2, 9, 11, 15, 16, 17, 21, 29, 6, 8, 11, 14, 18, 19, 20, 26, 28, 3, 9, 10, 15, 16, 17, 25, 26, 30, 10, 11, 14, 17, 18, 19, 21, 22, 26, 1, 3, 8, 9, 12, 13, 14, 18, 22, 9, 10, 14, 18, 19, 20, 27, 28, 29, 1, 2, 3, 8, 15, 25, 27, 29, 30, 5, 8, 10, 12, 23, 25, 26, 29, 30, 1, 3, 4, 5, 8, 14, 15, 24, 27, 3, 4, 12, 16, 17, 19, 24, 25, 26, 1, 4, 7, 8, 14, 16, 22, 26, 28, 1, 2, 5, 9, 10, 12, 26, 29, 30, 2, 5, 6, 7, 16, 19, 20, 23, 25, 4, 5, 13, 17, 18, 25, 27, 28, 29];
rreq = [|27, 27, 27, 27, 27, 27, 27, 27, 27, 12, 10, 9, 8, 7, 6, 6, 4, 4, 30, 28, 25, 24, 21, 20, 18, 17, 15, 10, 10, 10, 9, 8, 8, 8, 7, 7, 18, 18, 16, 16, 15, 13, 13, 12, 11, 27, 21, 19, 15, 14, 9, 7, 3, 3, 15, 14, 14, 13, 12, 10, 9, 9, 8, 18, 17, 17, 17, 16, 16, 16, 16, 16, 28, 27, 24, 22, 20, 19, 17, 16, 14, 18, 17, 16, 15, 15, 14, 13, 13, 12, 22, 19, 15, 13, 13, 9, 9, 6, 3, 24, 24, 24, 23, 23, 22, 22, 21, 21, 26, 25, 25, 25, 25, 25, 25, 25, 25, 25, 24, 24, 24, 23, 23, 23, 22, 22, 7, 6, 6, 6, 6, 6, 6, 6, 6, 24, 22, 20, 20, 18, 16, 15, 14, 12, 16, 14, 12, 10, 10, 8, 4, 4, 2, 21, 20, 18, 18, 15, 13, 11, 9, 9, 29, 28, 27, 26, 25, 23, 23, 21, 21, 18, 18, 17, 17, 16, 15, 15, 15, 14, 29, 26, 25, 22, 20, 19, 17, 15, 11, 18, 17, 17, 16, 15, 15, 14, 14, 14, 23, 22, 22, 22, 22, 22, 22, 22, 22, 22, 22, 22, 22, 22, 22, 22, 22, 22, 9, 8, 8, 7, 7, 6, 6, 5, 4, 27, 27, 27, 27, 26, 26, 25, 25, 25, 26, 24, 23, 20, 14, 13, 10, 5, 3, 22, 21, 21, 20, 20, 19, 19, 17, 17, 24, 22, 19, 18, 15, 11, 10, 6, 5, 28, 27, 26, 25, 25, 24, 24, 23, 23, 12, 10, 8, 8, 5, 4, 4, 3, 2, 24, 23, 23, 23, 23, 23, 23, 23, 23, 15, 15, 15, 15, 15, 15, 15, 15, 15, 23, 21, 20, 18, 14, 13, 10, 5, 5, 30, 27, 24, 19, 19, 14, 14, 10, 7, 23, 22, 21, 19, 18, 17, 17, 15, 15, 23, 22, 22, 20, 19, 18, 17, 17, 16, 26, 24, 24, 24, 22, 22, 21, 20, 20, 22, 19, 18, 15, 13, 8, 8, 3, 3, 4, 4, 4, 4, 4, 4, 4, 4, 4, 27, 23, 22, 21, 18, 15, 11, 11, 8, 28, 26, 23, 22, 21, 18, 16, 15, 13, 7, 6, 6, 5, 4, 3, 3, 1, 1, 21, 18, 18, 17, 15, 13, 12, 11, 9, 26, 23, 23, 18, 17, 15, 14, 9, 8, 10, 10, 9, 9, 7, 7, 6, 5, 5, 19, 18, 17, 15, 14, 11, 9, 9, 7, 20, 20, 19, 17, 15, 14, 14, 13, 11, 24, 22, 18, 17, 15, 13, 11, 8, 5, 3, 2, 2, 2, 1, 1, 1, 1, 1
 |28, 27, 24, 20, 20, 17, 15, 12, 10, 26, 25, 25, 23, 23, 21, 20, 18, 18, 19, 17, 15, 13, 11, 9, 8, 6, 3, 5, 4, 4, 3, 3, 3, 2, 2, 2, 23, 20, 17, 15, 15, 12, 7, 6, 5, 16, 12, 12, 9, 7, 6, 4, 2, 2, 25, 24, 24, 24, 23, 23, 23, 23, 23, 16, 16, 15, 15, 15, 14, 13, 13, 13, 25, 25, 23, 22, 22, 21, 20, 19, 19, 25, 25, 25, 24, 24, 24, 24, 23, 23, 22, 21, 20, 18, 18, 16, 16, 14, 14, 21, 20, 19, 19, 17, 15, 13, 13, 11, 28, 26, 24, 24, 21, 19, 19, 16, 16, 18, 18, 16, 16, 15, 14, 13, 13, 12, 13, 13, 13, 13, 13, 13, 13, 13, 13, 26, 25, 24, 23, 22, 22, 20, 19, 19, 17, 16, 16, 16, 15, 14, 14, 13, 13, 23, 20, 19, 15, 13, 10, 10, 7, 5, 25, 22, 20, 17, 14, 14, 9, 8, 7, 15, 14, 14, 14, 14, 13, 13, 13, 13, 21, 21, 18, 18, 15, 14, 14, 11, 11, 16, 15, 15, 15, 15, 14, 14, 14, 14, 19, 18, 17, 17, 16, 15, 14, 13, 13, 9, 9, 9, 9, 8, 8, 7, 7, 7, 13, 13, 13, 13, 13, 13, 13, 13, 13, 21, 21, 20, 20, 19, 19, 18, 18, 18, 13, 12, 11, 9, 9, 8, 7, 7, 6, 29, 27, 25, 23, 22, 19, 18, 18, 15, 8, 8, 8, 8, 8, 8, 8, 8, 8, 14, 12, 10, 10, 8, 7, 7, 6, 5, 14, 14, 13, 13, 13, 12, 12, 11, 11, 17, 16, 14, 12, 10, 9, 8, 6, 5, 11, 11, 10, 10, 10, 9, 8, 8, 8, 26, 26, 26, 26, 26, 25, 25, 25, 25, 12, 11, 10, 10, 8, 8, 7, 7, 6, 19, 18, 18, 17, 17, 16, 16, 16, 15, 6, 6, 5, 5, 4, 4, 3, 3, 2, 19, 18, 18, 18, 17, 17, 16, 16, 15, 15, 15, 15, 15, 15, 15, 15, 15, 15, 13, 12, 10, 10, 9, 9, 8, 6, 6, 23, 21, 19, 17, 17, 16, 13, 12, 10, 8, 7, 7, 7, 6, 6, 6, 5, 5, 12, 10, 9, 9, 7, 6, 5, 5, 4, 29, 28, 28, 28, 28, 27, 27, 27, 27, 14, 12, 11, 11, 10, 9, 8, 7, 6, 21, 19, 19, 19, 18, 18, 17, 17, 16, 17, 16, 15, 14, 12, 11, 11, 10, 8, 23, 22, 21, 20, 18, 17, 16, 15, 15, 25, 21, 20, 17, 15, 11, 9, 6, 6, 30, 30, 30, 30, 30, 30, 30, 30, 30
 |16, 15, 14, 13, 12, 11, 10, 10, 9, 24, 24, 24, 24, 24, 24, 24, 24, 24, 27, 23, 21, 18, 14, 10, 8, 5, 2, 15, 15, 14, 14, 14, 13, 13, 12, 12, 16, 15, 12, 12, 9, 9, 6, 4, 3, 18, 16, 14, 13, 12, 9, 9, 6, 4, 5, 4, 4, 4, 4, 3, 3, 3, 3, 19, 18, 18, 18, 18, 17, 17, 17, 17, 21, 19, 19, 17, 15, 12, 12, 9, 7, 25, 22, 21, 20, 18, 18, 15, 13, 12, 22, 20, 18, 16, 13, 11, 9, 5, 2, 12, 12, 11, 10, 10, 10, 9, 8, 8, 19, 18, 18, 18, 18, 18, 18, 18, 18, 14, 14, 13, 13, 12, 11, 11, 10, 10, 29, 23, 23, 21, 16, 15, 12, 8, 7, 3, 3, 3, 2, 2, 2, 1, 1, 1, 27, 25, 24, 20, 18, 14, 9, 6, 6, 7, 6, 6, 6, 6, 5, 5, 5, 5, 26, 23, 23, 19, 15, 14, 11, 10, 6, 16, 14, 13, 11, 10, 10, 9, 8, 6, 29, 25, 25, 24, 20, 20, 18, 16, 15, 20, 17, 17, 15, 14, 11, 10, 9, 8, 16, 16, 14, 13, 12, 11, 10, 10, 9, 25, 23, 23, 22, 21, 21, 21, 19, 19, 17, 14, 13, 13, 10, 10, 9, 6, 6, 28, 28, 27, 26, 26, 26, 25, 25, 24, 27, 26, 26, 26, 25, 25, 25, 25, 25, 14, 12, 11, 9, 7, 7, 4, 3, 2, 25, 22, 20, 20, 19, 17, 14, 14, 12, 23, 22, 20, 20, 18, 16, 14, 13, 13, 7, 6, 6, 6, 6, 5, 5, 5, 5, 28, 27, 27, 26, 25, 25, 25, 24, 24, 18, 18, 18, 18, 18, 18, 18, 18, 18, 13, 12, 12, 11, 11, 10, 9, 9, 9, 21, 17, 16, 14, 11, 11, 9, 7, 4, 27, 23, 23, 21, 20, 18, 17, 14, 13, 9, 8, 7, 6, 6, 5, 3, 3, 2, 28, 27, 27, 27, 26, 26, 25, 25, 25, 6, 5, 5, 5, 5, 5, 5, 5, 5, 26, 25, 24, 23, 23, 23, 22, 22, 21, 13, 12, 12, 12, 12, 12, 12, 12, 12, 22, 17, 16, 14, 10, 8, 7, 4, 2, 25, 25, 21, 20, 19, 18, 16, 12, 11, 19, 18, 18, 17, 15, 14, 14, 13, 12, 11, 11, 11, 11, 11, 11, 11, 11, 11, 26, 24, 24, 22, 18, 15, 12, 10, 8, 24, 24, 21, 21, 17, 16, 15, 12, 12, 27, 26, 23, 23, 20, 19, 18, 16, 14, 28, 26, 26, 24, 23, 23, 21, 20, 20, 28, 25, 25, 24, 22, 21, 18, 17, 17
 |23, 23, 22, 22, 20, 20, 19, 18, 18, 29, 27, 24, 22, 19, 17, 17, 13, 13, 16, 14, 14, 12, 11, 10, 9, 8, 8, 22, 22, 22, 22, 22, 22, 22, 22, 22, 15, 14, 12, 11, 8, 7, 5, 5, 3, 18, 17, 16, 14, 14, 13, 12, 10, 10, 10, 9, 9, 8, 8, 7, 7, 6, 6, 20, 17, 14, 12, 11, 9, 5, 5, 2, 26, 22, 22, 17, 15, 11, 8, 7, 3, 12, 11, 11, 11, 10, 10, 10, 10, 10, 23, 21, 21, 18, 17, 15, 14, 13, 10, 26, 25, 23, 18, 14, 13, 9, 4, 2, 26, 23, 22, 19, 18, 16, 14, 12, 10, 26, 24, 20, 16, 16, 12, 8, 5, 4, 27, 25, 22, 20, 15, 14, 10, 8, 6, 13, 13, 13, 13, 13, 13, 13, 13, 13, 27, 26, 24, 22, 22, 21, 19, 17, 16, 10, 10, 9, 8, 7, 6, 5, 3, 3, 21, 18, 17, 14, 12, 10, 8, 5, 4, 19, 17, 16, 15, 11, 10, 9, 7, 5, 10, 10, 10, 10, 10, 10, 10, 10, 10, 27, 27, 27, 27, 27, 27, 27, 27, 27, 9, 8, 7, 6, 5, 4, 3, 3, 2, 30, 26, 21, 18, 13, 12, 8, 7, 3, 14, 12, 11, 10, 9, 8, 8, 7, 6, 20, 19, 18, 18, 15, 15, 13, 12, 11, 16, 15, 12, 12, 9, 7, 6, 5, 3, 23, 23, 23, 23, 23, 23, 23, 23, 23, 27, 25, 25, 20, 19, 15, 14, 11, 10, 29, 28, 28, 27, 27, 26, 25, 25, 25, 27, 26, 24, 23, 21, 21, 19, 18, 17, 14, 14, 14, 13, 13, 12, 11, 11, 11, 18, 16, 16, 15, 14, 14, 14, 12, 12, 21, 20, 20, 18, 17, 17, 15, 14, 14, 26, 25, 25, 24, 24, 24, 24, 23, 23, 4, 3, 3, 3, 3, 2, 2, 2, 2, 27, 26, 23, 21, 20, 18, 16, 13, 13, 27, 25, 23, 19, 19, 15, 12, 9, 8, 11, 10, 10, 9, 8, 8, 8, 7, 7, 10, 8, 8, 7, 5, 5, 4, 3, 2, 26, 22, 19, 18, 13, 10, 8, 6, 2, 29, 27, 23, 21, 19, 16, 11, 8, 8, 10, 9, 7, 6, 6, 5, 5, 4, 3, 27, 25, 20, 18, 15, 13, 12, 9, 6, 30, 25, 22, 20, 20, 16, 15, 10, 8, 21, 21, 19, 19, 18, 17, 16, 16, 15, 28, 27, 26, 25, 23, 23, 21, 20, 19, 13, 10, 9, 9, 7, 5, 5, 3, 2, 30, 28, 28, 27, 27, 26, 26, 26, 25, 18, 18, 18, 18, 18, 17, 17, 17, 17
 |20, 20, 17, 16, 14, 12, 10, 9, 7, 11, 10, 9, 8, 7, 6, 5, 4, 4, 16, 15, 14, 13, 11, 9, 8, 5, 3, 26, 26, 26, 25, 25, 25, 25, 24, 24, 22, 18, 18, 17, 14, 12, 10, 9, 8, 22, 21, 19, 18, 17, 15, 14, 13, 12, 24, 23, 22, 19, 18, 17, 16, 14, 13, 24, 22, 21, 18, 18, 16, 14, 12, 12, 27, 27, 27, 27, 27, 27, 27, 27, 27, 26, 25, 22, 21, 18, 14, 14, 12, 8, 25, 23, 23, 21, 17, 15, 14, 11, 9, 26, 26, 26, 26, 26, 26, 26, 26, 26, 29, 28, 28, 28, 28, 28, 28, 28, 28, 12, 12, 12, 12, 11, 11, 10, 10, 10, 26, 24, 24, 23, 22, 21, 20, 18, 17, 7, 7, 7, 6, 6, 6, 6, 5, 5, 24, 22, 19, 18, 17, 16, 14, 10, 10, 12, 11, 11, 11, 10, 10, 9, 8, 8, 16, 14, 14, 13, 12, 11, 10, 9, 9, 19, 18, 14, 14, 12, 8, 8, 6, 3, 17, 16, 14, 14, 12, 11, 11, 10, 8, 27, 25, 22, 22, 17, 17, 12, 11, 8, 29, 27, 26, 25, 24, 23, 22, 22, 21, 7, 6, 6, 6, 6, 5, 5, 5, 5, 23, 23, 22, 20, 19, 18, 18, 16, 15, 23, 21, 20, 20, 19, 17, 17, 15, 15, 22, 19, 17, 15, 13, 13, 10, 8, 7, 14, 14, 14, 14, 13, 13, 12, 12, 12, 10, 9, 8, 7, 7, 7, 5, 5, 4, 15, 15, 14, 14, 13, 12, 12, 11, 10, 23, 21, 20, 18, 14, 12, 11, 7, 4, 25, 23, 23, 21, 20, 19, 19, 18, 17, 7, 7, 7, 7, 6, 6, 6, 6, 6, 27, 25, 23, 20, 18, 17, 16, 12, 12, 16, 15, 15, 14, 14, 13, 13, 12, 12, 18, 18, 16, 13, 11, 9, 7, 6, 2, 8, 7, 7, 7, 7, 6, 6, 6, 6, 24, 24, 21, 19, 15, 15, 13, 9, 7, 30, 29, 28, 27, 26, 25, 24, 23, 21, 28, 24, 23, 20, 16, 16, 11, 11, 7, 28, 26, 25, 25, 23, 23, 22, 20, 19, 18, 18, 16, 15, 15, 14, 13, 12, 12, 15, 14, 14, 14, 13, 13, 13, 12, 12, 17, 13, 12, 11, 9, 8, 6, 2, 2, 16, 14, 14, 12, 12, 11, 10, 8, 8, 22, 21, 20, 19, 18, 17, 17, 15, 15, 12, 12, 11, 10, 8, 6, 5, 4, 3, 25, 21, 19, 17, 12, 11, 7, 4, 2, 17, 15, 13, 11, 11, 9, 5, 5, 3, 25, 21, 19, 17, 15, 12, 11, 9, 7
 |17, 17, 16, 14, 12, 11, 9, 9, 8, 15, 13, 11, 10, 8, 8, 7, 4, 3, 24, 21, 20, 16, 14, 14, 11, 8, 7, 27, 24, 21, 19, 15, 13, 11, 9, 8, 17, 17, 16, 13, 13, 11, 9, 8, 8, 8, 7, 7, 7, 7, 7, 7, 7, 7, 30, 28, 28, 27, 27, 26, 26, 26, 25, 15, 14, 14, 13, 11, 10, 8, 7, 6, 18, 17, 17, 16, 15, 15, 15, 14, 14, 20, 19, 16, 13, 13, 9, 9, 5, 4, 25, 24, 23, 22, 21, 21, 20, 19, 19, 8, 8, 8, 8, 8, 7, 7, 7, 7, 13, 11, 10, 9, 9, 8, 7, 6, 4, 7, 7, 7, 7, 7, 7, 7, 7, 7, 14, 14, 12, 9, 7, 6, 5, 2, 1, 27, 25, 25, 25, 24, 23, 23, 22, 22, 14, 14, 14, 14, 13, 13, 13, 13, 13, 22, 22, 22, 22, 21, 21, 20, 20, 20, 26, 23, 22, 21, 20, 18, 16, 15, 13, 19, 19, 17, 17, 15, 15, 13, 12, 12, 14, 14, 13, 12, 12, 11, 11, 9, 9, 18, 18, 18, 17, 17, 16, 15, 15, 15, 19, 19, 19, 18, 17, 17, 16, 16, 16, 22, 20, 20, 20, 19, 18, 18, 17, 17, 22, 17, 16, 15, 10, 10, 6, 5, 3, 29, 24, 21, 18, 15, 13, 9, 6, 4, 20, 20, 20, 20, 19, 19, 19, 18, 18, 12, 10, 10, 9, 6, 6, 4, 3, 1, 10, 9, 9, 9, 9, 9, 9, 9, 9, 28, 25, 25, 23, 18, 17, 14, 12, 11, 29, 24, 22, 19, 17, 15, 12, 10, 5, 8, 7, 6, 5, 4, 4, 2, 1, 1, 29, 26, 23, 19, 18, 14, 11, 7, 5, 19, 18, 17, 16, 16, 15, 14, 13, 12, 29, 24, 22, 20, 16, 13, 11, 8, 5, 15, 14, 13, 13, 13, 12, 11, 11, 11, 25, 22, 21, 20, 16, 15, 13, 11, 10, 23, 23, 22, 22, 22, 21, 20, 20, 20, 12, 11, 11, 11, 10, 10, 10, 10, 10, 9, 8, 8, 8, 7, 6, 6, 5, 5, 23, 19, 18, 16, 14, 11, 10, 7, 7, 6, 6, 6, 5, 5, 5, 4, 4, 4, 20, 19, 16, 16, 12, 12, 10, 7, 6, 28, 27, 27, 27, 26, 26, 26, 25, 25, 27, 27, 25, 23, 20, 17, 17, 14, 12, 26, 25, 23, 22, 21, 21, 20, 19, 18, 19, 19, 18, 18, 17, 17, 16, 16, 15, 24, 22, 21, 19, 18, 15, 15, 13, 10, 21, 20, 19, 18, 18, 18, 17, 17, 16, 17, 15, 13, 12, 10, 10, 8, 7, 6|];